p cnf 386 460
-19 2 16 21 22 0
-19 2 16 21 -22 0
-19 2 16 -21 23 0
-19 2 16 -21 -23 0
10 -4 -19 24 25 0
10 -4 -19 24 -25 0
10 -4 -19 -24 26 0
10 -4 -19 -24 -26 0
7 -20 15 27 28 0
7 -20 15 27 -28 0
7 -20 15 -27 29 0
7 -20 15 -27 -29 0
16 11 -9 30 31 0
16 11 -9 30 -31 0
16 11 -9 -30 32 0
16 11 -9 -30 -32 0
15 5 6 33 34 0
15 5 6 33 -34 0
15 5 6 -33 35 0
15 5 6 -33 -35 0
10 8 3 36 37 0
10 8 3 36 -37 0
10 8 3 -36 38 0
10 8 3 -36 -38 0
-13 10 11 39 40 0
-13 10 11 39 -40 0
-13 10 11 -39 41 0
-13 10 11 -39 -41 0
-18 -4 2 42 43 0
-18 -4 2 42 -43 0
-18 -4 2 -42 44 0
-18 -4 2 -42 -44 0
-15 7 -4 45 46 0
-15 7 -4 45 -46 0
-15 7 -4 -45 47 0
-15 7 -4 -45 -47 0
18 -11 20 48 49 0
18 -11 20 48 -49 0
18 -11 20 -48 50 0
18 -11 20 -48 -50 0
-13 16 15 51 52 0
-13 16 15 51 -52 0
-13 16 15 -51 53 0
-13 16 15 -51 -53 0
-4 -11 18 54 55 0
-4 -11 18 54 -55 0
-4 -11 18 -54 56 0
-4 -11 18 -54 -56 0
11 -18 -6 57 58 0
11 -18 -6 57 -58 0
11 -18 -6 -57 59 0
11 -18 -6 -57 -59 0
4 -1 -7 60 61 0
4 -1 -7 60 -61 0
4 -1 -7 -60 62 0
4 -1 -7 -60 -62 0
6 -11 -3 63 64 0
6 -11 -3 63 -64 0
6 -11 -3 -63 65 0
6 -11 -3 -63 -65 0
14 9 -11 66 67 0
14 9 -11 66 -67 0
14 9 -11 -66 68 0
14 9 -11 -66 -68 0
-16 -5 -3 69 70 0
-16 -5 -3 69 -70 0
-16 -5 -3 -69 71 0
-16 -5 -3 -69 -71 0
18 -10 15 72 73 0
18 -10 15 72 -73 0
18 -10 15 -72 74 0
18 -10 15 -72 -74 0
17 -4 9 75 76 0
17 -4 9 75 -76 0
17 -4 9 -75 77 0
17 -4 9 -75 -77 0
-15 17 13 78 79 0
-15 17 13 78 -79 0
-15 17 13 -78 80 0
-15 17 13 -78 -80 0
13 16 -17 81 82 0
13 16 -17 81 -82 0
13 16 -17 -81 83 0
13 16 -17 -81 -83 0
-15 -20 3 84 85 0
-15 -20 3 84 -85 0
-15 -20 3 -84 86 0
-15 -20 3 -84 -86 0
-14 -11 -9 87 88 0
-14 -11 -9 87 -88 0
-14 -11 -9 -87 89 0
-14 -11 -9 -87 -89 0
-11 14 6 90 91 0
-11 14 6 90 -91 0
-11 14 6 -90 92 0
-11 14 6 -90 -92 0
8 1 20 93 94 0
8 1 20 93 -94 0
8 1 20 -93 95 0
8 1 20 -93 -95 0
18 4 -2 96 97 0
18 4 -2 96 -97 0
18 4 -2 -96 98 0
18 4 -2 -96 -98 0
-1 5 14 99 100 0
-1 5 14 99 -100 0
-1 5 14 -99 101 0
-1 5 14 -99 -101 0
-4 17 -16 102 103 0
-4 17 -16 102 -103 0
-4 17 -16 -102 104 0
-4 17 -16 -102 -104 0
8 1 18 105 106 0
8 1 18 105 -106 0
8 1 18 -105 107 0
8 1 18 -105 -107 0
9 -6 -14 108 109 0
9 -6 -14 108 -109 0
9 -6 -14 -108 110 0
9 -6 -14 -108 -110 0
5 -17 14 111 112 0
5 -17 14 111 -112 0
5 -17 14 -111 113 0
5 -17 14 -111 -113 0
7 3 20 114 115 0
7 3 20 114 -115 0
7 3 20 -114 116 0
7 3 20 -114 -116 0
-6 1 -13 117 118 0
-6 1 -13 117 -118 0
-6 1 -13 -117 119 0
-6 1 -13 -117 -119 0
16 -10 19 120 121 0
16 -10 19 120 -121 0
16 -10 19 -120 122 0
16 -10 19 -120 -122 0
7 -12 -20 123 124 0
7 -12 -20 123 -124 0
7 -12 -20 -123 125 0
7 -12 -20 -123 -125 0
17 3 -14 126 127 0
17 3 -14 126 -127 0
17 3 -14 -126 128 0
17 3 -14 -126 -128 0
-9 -6 19 129 130 0
-9 -6 19 129 -130 0
-9 -6 19 -129 131 0
-9 -6 19 -129 -131 0
-12 -4 -3 132 133 0
-12 -4 -3 132 -133 0
-12 -4 -3 -132 134 0
-12 -4 -3 -132 -134 0
9 -16 20 135 136 0
9 -16 20 135 -136 0
9 -16 20 -135 137 0
9 -16 20 -135 -137 0
18 12 6 138 139 0
18 12 6 138 -139 0
18 12 6 -138 140 0
18 12 6 -138 -140 0
19 12 -15 141 142 0
19 12 -15 141 -142 0
19 12 -15 -141 143 0
19 12 -15 -141 -143 0
-14 10 17 144 145 0
-14 10 17 144 -145 0
-14 10 17 -144 146 0
-14 10 17 -144 -146 0
-17 -12 11 147 148 0
-17 -12 11 147 -148 0
-17 -12 11 -147 149 0
-17 -12 11 -147 -149 0
-18 20 3 150 151 0
-18 20 3 150 -151 0
-18 20 3 -150 152 0
-18 20 3 -150 -152 0
4 14 -10 153 154 0
4 14 -10 153 -154 0
4 14 -10 -153 155 0
4 14 -10 -153 -155 0
4 -15 -6 156 157 0
4 -15 -6 156 -157 0
4 -15 -6 -156 158 0
4 -15 -6 -156 -158 0
-2 5 14 159 160 0
-2 5 14 159 -160 0
-2 5 14 -159 161 0
-2 5 14 -159 -161 0
-11 17 8 162 163 0
-11 17 8 162 -163 0
-11 17 8 -162 164 0
-11 17 8 -162 -164 0
1 6 -13 165 166 0
1 6 -13 165 -166 0
1 6 -13 -165 167 0
1 6 -13 -165 -167 0
-18 19 1 168 169 0
-18 19 1 168 -169 0
-18 19 1 -168 170 0
-18 19 1 -168 -170 0
15 -16 -13 171 172 0
15 -16 -13 171 -172 0
15 -16 -13 -171 173 0
15 -16 -13 -171 -173 0
-14 6 -8 174 175 0
-14 6 -8 174 -175 0
-14 6 -8 -174 176 0
-14 6 -8 -174 -176 0
15 -18 -9 177 178 0
15 -18 -9 177 -178 0
15 -18 -9 -177 179 0
15 -18 -9 -177 -179 0
10 17 -2 180 181 0
10 17 -2 180 -181 0
10 17 -2 -180 182 0
10 17 -2 -180 -182 0
-18 -10 19 183 184 0
-18 -10 19 183 -184 0
-18 -10 19 -183 185 0
-18 -10 19 -183 -185 0
12 15 -1 186 187 0
12 15 -1 186 -187 0
12 15 -1 -186 188 0
12 15 -1 -186 -188 0
-13 -17 12 189 190 0
-13 -17 12 189 -190 0
-13 -17 12 -189 191 0
-13 -17 12 -189 -191 0
-17 5 -10 192 193 0
-17 5 -10 192 -193 0
-17 5 -10 -192 194 0
-17 5 -10 -192 -194 0
9 -3 -1 195 196 0
9 -3 -1 195 -196 0
9 -3 -1 -195 197 0
9 -3 -1 -195 -197 0
7 4 -17 198 199 0
7 4 -17 198 -199 0
7 4 -17 -198 200 0
7 4 -17 -198 -200 0
-15 17 14 201 202 0
-15 17 14 201 -202 0
-15 17 14 -201 203 0
-15 17 14 -201 -203 0
9 -17 -19 204 205 0
9 -17 -19 204 -205 0
9 -17 -19 -204 206 0
9 -17 -19 -204 -206 0
-7 13 -19 207 208 0
-7 13 -19 207 -208 0
-7 13 -19 -207 209 0
-7 13 -19 -207 -209 0
-15 14 -3 210 211 0
-15 14 -3 210 -211 0
-15 14 -3 -210 212 0
-15 14 -3 -210 -212 0
-14 -10 20 213 214 0
-14 -10 20 213 -214 0
-14 -10 20 -213 215 0
-14 -10 20 -213 -215 0
10 8 19 216 217 0
10 8 19 216 -217 0
10 8 19 -216 218 0
10 8 19 -216 -218 0
7 -12 -19 219 220 0
7 -12 -19 219 -220 0
7 -12 -19 -219 221 0
7 -12 -19 -219 -221 0
-20 -19 -8 222 223 0
-20 -19 -8 222 -223 0
-20 -19 -8 -222 224 0
-20 -19 -8 -222 -224 0
-18 10 7 225 226 0
-18 10 7 225 -226 0
-18 10 7 -225 227 0
-18 10 7 -225 -227 0
-16 18 -19 228 229 0
-16 18 -19 228 -229 0
-16 18 -19 -228 230 0
-16 18 -19 -228 -230 0
-17 19 20 231 232 0
-17 19 20 231 -232 0
-17 19 20 -231 233 0
-17 19 20 -231 -233 0
-17 -9 14 234 235 0
-17 -9 14 234 -235 0
-17 -9 14 -234 236 0
-17 -9 14 -234 -236 0
-11 -13 -5 237 238 0
-11 -13 -5 237 -238 0
-11 -13 -5 -237 239 0
-11 -13 -5 -237 -239 0
-11 8 -9 240 241 0
-11 8 -9 240 -241 0
-11 8 -9 -240 242 0
-11 8 -9 -240 -242 0
7 -4 -11 243 244 0
7 -4 -11 243 -244 0
7 -4 -11 -243 245 0
7 -4 -11 -243 -245 0
-16 14 -17 246 247 0
-16 14 -17 246 -247 0
-16 14 -17 -246 248 0
-16 14 -17 -246 -248 0
-17 5 7 249 250 0
-17 5 7 249 -250 0
-17 5 7 -249 251 0
-17 5 7 -249 -251 0
17 12 13 252 253 0
17 12 13 252 -253 0
17 12 13 -252 254 0
17 12 13 -252 -254 0
-20 -11 8 255 256 0
-20 -11 8 255 -256 0
-20 -11 8 -255 257 0
-20 -11 8 -255 -257 0
3 -1 11 258 259 0
3 -1 11 258 -259 0
3 -1 11 -258 260 0
3 -1 11 -258 -260 0
-3 13 7 261 262 0
-3 13 7 261 -262 0
-3 13 7 -261 263 0
-3 13 7 -261 -263 0
14 6 -13 264 265 0
14 6 -13 264 -265 0
14 6 -13 -264 266 0
14 6 -13 -264 -266 0
1 18 5 267 268 0
1 18 5 267 -268 0
1 18 5 -267 269 0
1 18 5 -267 -269 0
1 6 -18 270 271 0
1 6 -18 270 -271 0
1 6 -18 -270 272 0
1 6 -18 -270 -272 0
-9 -4 -16 273 274 0
-9 -4 -16 273 -274 0
-9 -4 -16 -273 275 0
-9 -4 -16 -273 -275 0
-9 13 7 276 277 0
-9 13 7 276 -277 0
-9 13 7 -276 278 0
-9 13 7 -276 -278 0
-20 4 -13 279 280 0
-20 4 -13 279 -280 0
-20 4 -13 -279 281 0
-20 4 -13 -279 -281 0
5 9 16 282 283 0
5 9 16 282 -283 0
5 9 16 -282 284 0
5 9 16 -282 -284 0
-16 -10 7 285 286 0
-16 -10 7 285 -286 0
-16 -10 7 -285 287 0
-16 -10 7 -285 -287 0
9 7 13 288 289 0
9 7 13 288 -289 0
9 7 13 -288 290 0
9 7 13 -288 -290 0
19 14 16 291 292 0
19 14 16 291 -292 0
19 14 16 -291 293 0
19 14 16 -291 -293 0
294 295 297 301 309 0
294 295 297 301 -309 0
294 295 297 -301 310 0
294 295 297 -301 -310 0
294 295 -297 302 311 0
294 295 -297 302 -311 0
294 295 -297 -302 312 0
294 295 -297 -302 -312 0
294 -295 298 303 313 0
294 -295 298 303 -313 0
294 -295 298 -303 314 0
294 -295 298 -303 -314 0
294 -295 -298 304 315 0
294 -295 -298 304 -315 0
294 -295 -298 -304 316 0
294 -295 -298 -304 -316 0
-294 296 299 305 317 0
-294 296 299 305 -317 0
-294 296 299 -305 318 0
-294 296 299 -305 -318 0
-294 296 -299 306 319 0
-294 296 -299 306 -319 0
-294 296 -299 -306 320 0
-294 296 -299 -306 -320 0
-294 -296 300 307 321 0
-294 -296 300 307 -321 0
-294 -296 300 -307 322 0
-294 -296 300 -307 -322 0
-294 -296 -300 308 323 0
-294 -296 -300 308 -323 0
-294 -296 -300 -308 324 0
-294 -296 -300 -308 -324 0
325 326 328 332 340 0
325 326 328 332 -340 0
325 326 328 -332 341 0
325 326 328 -332 -341 0
325 326 -328 333 342 0
325 326 -328 333 -342 0
325 326 -328 -333 343 0
325 326 -328 -333 -343 0
325 -326 329 334 344 0
325 -326 329 334 -344 0
325 -326 329 -334 345 0
325 -326 329 -334 -345 0
325 -326 -329 335 346 0
325 -326 -329 335 -346 0
325 -326 -329 -335 347 0
325 -326 -329 -335 -347 0
-325 327 330 336 348 0
-325 327 330 336 -348 0
-325 327 330 -336 349 0
-325 327 330 -336 -349 0
-325 327 -330 337 350 0
-325 327 -330 337 -350 0
-325 327 -330 -337 351 0
-325 327 -330 -337 -351 0
-325 -327 331 338 352 0
-325 -327 331 338 -352 0
-325 -327 331 -338 353 0
-325 -327 331 -338 -353 0
-325 -327 -331 339 354 0
-325 -327 -331 339 -354 0
-325 -327 -331 -339 355 0
-325 -327 -331 -339 -355 0
356 357 359 363 371 0
356 357 359 363 -371 0
356 357 359 -363 372 0
356 357 359 -363 -372 0
356 357 -359 364 373 0
356 357 -359 364 -373 0
356 357 -359 -364 374 0
356 357 -359 -364 -374 0
356 -357 360 365 375 0
356 -357 360 365 -375 0
356 -357 360 -365 376 0
356 -357 360 -365 -376 0
356 -357 -360 366 377 0
356 -357 -360 366 -377 0
356 -357 -360 -366 378 0
356 -357 -360 -366 -378 0
-356 358 361 367 379 0
-356 358 361 367 -379 0
-356 358 361 -367 380 0
-356 358 361 -367 -380 0
-356 358 -361 368 381 0
-356 358 -361 368 -381 0
-356 358 -361 -368 382 0
-356 358 -361 -368 -382 0
-356 -358 362 369 383 0
-356 -358 362 369 -383 0
-356 -358 362 -369 384 0
-356 -358 362 -369 -384 0
-356 -358 -362 370 385 0
-356 -358 -362 370 -385 0
-356 -358 -362 -370 386 0
-356 -358 -362 -370 -386 0

